p sp 24 33
c horizontais e verticais
a 1 2 1
a 2 3 1
a 3 4 1
a 4 5 1
a 5 6 1
a 2 7 1
a 6 8 1
a 7 9 1
a 8 10 1
a 9 12 1
a 10 15 1
a 11 12 1
a 13 14 1
a 14 15 1
a 11 16 1
a 13 17 1
a 15 18 1
a 16 19 1
a 17 22 1
a 18 23 1
a 19 20 1
a 20 21 1
a 21 22 1
a 23 24 1
c diagonais
a 1 7 1
a 5 8 1
a 9 11 1
a 12 16 1
a 16 20 1
a 17 14 1
a 21 17 1
a 14 10 1
a 14 18 1
